17	4	3
22	25	23	23	33	16	44	
0	0	0	0	0	1	10	4	5	2	8	3	2	3	4
5	0	7	1	0	8	4	1	5	8	4	3	10	12	17
8	0	7	0	5	4	4	5	4	2	4	2	8	17
10	5	0	0	3	4	4	1	7	10	7	2	5	17
10	4	7	0	0	7	2	7	6	6	1	3	6	9	15
225	2	0	0	10	10	7	10	3	1	2	2	7	17
175	5	8	0	0	1	8	6	2	3	4	2	17	17
25	5	7	10	0	5	6	7	10	9	8	1	10
125	2	6	0	0	3	2	1	3	9	1	2	11	17
250	9	8	0	0	10	5	2	6	10	7	2	16	17
250	9	0	0	8	6	10	3	6	3	4	1	17
200	3	3	4	8	7	3	1	3	4	3	2	13	14
4	0	0	0	8	6	9	9	3	9	7	2	16	17
9	9	8	3	0	10	1	9	1	3	7	1	17
8	7	5	0	0	1	3	2	3	8	2	2	16	17
8	2	9	0	0	9	4	2	2	9	4	1	17
0	0	0	0	0	6	6	7	6	8	1	0
